53
7 40 64
40 18 92
18 44 75
44 2 220
2 17 135
17 30 80
30 21 104
21 31 97
31 48 50
48 43 157
43 33 80
33 34 21
34 35 15
35 38 43
38 39 43
39 36 41
36 37 43
37 47 49
47 23 16
23 4 32
4 14 25
14 5 40
5 3 70
3 24 109
24 45 173
45 15 156
15 49 130
49 19 35
19 22 94
22 20 187
20 16 253
16 41 408
41 6 76
6 1 45
1 52 187
52 29 480
29 28 260
28 46 523
46 25 186
25 12 254
12 13 206
13 51 319
51 26 426
26 27 110
27 11 182
11 10 387
10 50 285
50 32 475
32 42 365
42 9 308
9 8 83
8 7 183

